122
848
92
0 4
0 33
0 57
0 66
1 2
1 7
1 10
1 12
1 25
1 53
1 64
1 94
2 8
2 9
2 14
2 16
2 21
2 23
2 53
2 64
3 5
3 6
3 11
3 13
3 17
3 28
3 45
3 49
3 51
3 54
3 55
3 56
3 58
3 111
4 10
4 12
4 18
4 19
4 20
4 22
4 33
4 57
4 66
5 6
5 11
5 13
5 17
5 28
5 45
6 11
6 13
6 17
6 28
6 45
6 50
6 59
6 60
6 61
6 62
6 65
6 70
6 80
6 81
7 10
7 12
7 25
7 94
8 9
8 14
8 16
8 21
8 23
8 26
8 27
8 29
8 97
9 14
9 16
9 21
9 23
9 26
9 27
9 29
9 35
9 38
9 39
9 51
9 56
9 97
10 12
10 18
10 19
10 20
10 22
10 25
10 57
10 66
10 94
11 13
11 17
11 28
11 33
11 45
11 82
12 18
12 19
12 20
12 22
12 25
12 38
12 44
12 46
12 57
12 66
12 94
12 100
13 17
13 28
13 33
13 45
13 50
13 59
13 60
13 61
13 62
13 63
13 82
13 86
13 91
13 92
13 95
13 99
13 107
13 112
14 16
14 21
14 23
14 30
14 31
14 32
15 16
15 21
15 23
15 63
15 105
15 115
16 21
16 23
16 63
16 105
16 115
17 28
17 45
17 83
17 104
18 19
18 20
18 22
18 27
18 29
18 36
18 37
18 41
18 42
18 43
18 50
18 57
18 66
18 71
18 73
18 75
18 96
18 118
19 20
19 22
19 38
19 44
19 46
19 57
19 66
19 76
19 77
19 78
19 80
19 81
19 100
20 22
20 39
20 40
20 47
20 48
20 51
20 57
20 66
20 72
20 79
20 109
20 116
20 117
20 120
21 23
21 30
21 31
21 32
21 63
21 105
21 115
22 39
22 40
22 47
22 48
22 51
22 57
22 66
22 72
22 79
22 90
22 113
22 121
23 30
23 31
23 32
23 63
23 86
23 87
23 88
23 91
23 105
23 115
24 25
24 28
24 33
24 82
24 84
24 94
24 116
25 28
25 33
25 82
25 84
25 94
25 116
26 27
26 29
26 35
26 38
26 39
26 45
26 51
26 56
26 63
26 83
26 95
26 97
26 104
26 105
26 106
26 107
26 115
27 29
27 36
27 37
27 43
27 75
27 97
27 118
28 33
28 45
28 82
28 84
28 94
28 116
29 36
29 37
29 43
29 50
29 75
29 97
29 118
30 31
30 32
30 86
30 87
30 88
30 90
30 91
30 95
30 98
30 99
31 32
32 83
32 89
32 90
32 92
32 93
33 34
33 41
33 54
33 57
33 66
33 71
33 82
33 84
33 94
33 116
34 41
34 54
34 71
35 38
35 39
35 51
35 56
36 37
36 43
36 75
36 118
37 43
37 50
37 75
37 118
38 39
38 44
38 46
38 51
38 56
38 64
38 66
38 67
38 76
38 77
38 78
38 80
38 81
38 88
38 98
38 100
38 103
38 111
38 119
39 40
39 47
39 48
39 51
39 56
39 72
39 79
39 89
39 92
39 101
39 119
40 47
40 48
40 51
40 72
40 79
40 82
40 84
40 85
40 94
40 97
40 108
40 109
40 116
40 117
40 120
41 42
41 43
41 54
41 71
41 73
41 75
41 96
41 118
42 43
42 71
42 73
42 75
42 96
42 118
43 71
43 73
43 75
43 96
43 118
44 46
44 64
44 66
44 67
44 76
44 77
44 78
44 80
44 81
44 88
44 98
44 100
44 103
44 111
44 119
45 63
45 83
45 95
45 104
45 105
45 106
45 107
45 115
46 76
46 77
46 78
46 80
46 81
46 100
47 48
47 51
47 72
47 79
47 89
47 92
47 101
47 103
47 107
47 108
47 111
47 112
47 114
47 119
48 51
48 72
48 79
49 51
49 54
49 55
49 56
50 59
50 60
50 61
50 62
50 68
50 69
50 78
50 108
50 114
51 54
51 55
51 56
51 72
51 79
51 90
51 113
51 121
52 53
52 57
52 64
52 66
52 103
53 57
53 64
53 66
53 103
54 55
54 56
54 58
54 71
54 111
55 56
55 58
55 111
56 58
56 111
57 64
57 66
57 103
58 111
59 60
59 61
59 62
60 61
60 62
60 63
60 86
60 91
60 92
60 95
60 99
60 107
60 112
61 62
61 68
61 69
61 78
61 94
61 97
61 108
61 114
62 65
62 70
62 80
62 81
63 71
63 72
63 73
63 74
63 75
63 79
63 83
63 86
63 91
63 92
63 95
63 99
63 104
63 105
63 106
63 107
63 112
63 115
64 66
64 67
64 76
64 88
64 98
64 103
64 111
64 119
65 70
65 80
65 81
65 83
65 87
65 96
65 100
65 104
65 105
65 106
65 109
65 110
65 113
65 115
65 118
66 67
66 76
66 88
66 98
66 103
66 111
66 119
67 76
67 88
67 98
67 103
67 111
67 119
68 69
68 78
68 94
68 97
68 108
68 114
69 78
69 108
69 114
70 80
70 81
70 104
70 105
70 106
70 109
70 110
70 113
71 72
71 73
71 74
71 75
71 79
71 86
71 95
71 96
71 107
71 118
72 73
72 74
72 75
72 79
72 82
72 84
72 85
72 86
72 94
72 95
72 97
72 107
72 108
72 109
72 116
72 117
72 120
73 74
73 75
73 79
73 86
73 95
73 96
73 107
73 118
74 75
74 79
74 86
74 95
74 107
75 79
75 86
75 95
75 96
75 107
75 118
76 77
76 78
76 80
76 81
76 88
76 98
76 103
76 111
76 119
77 78
77 80
77 81
78 80
78 81
78 108
78 114
79 86
79 90
79 95
79 107
79 113
79 121
80 81
81 104
81 105
81 106
81 109
81 110
81 113
82 84
82 85
82 94
82 97
82 108
82 109
82 116
82 117
83 87
83 89
83 90
83 92
83 93
83 95
83 96
83 100
83 104
83 105
83 106
83 107
83 110
83 115
83 118
84 85
84 94
84 97
84 108
84 109
84 116
84 117
85 94
85 97
85 108
85 109
85 116
85 117
86 87
86 88
86 90
86 91
86 92
86 95
86 98
86 99
86 107
86 112
87 88
87 91
87 96
87 100
87 101
87 102
87 104
87 105
87 106
87 110
87 115
87 118
88 90
88 91
88 95
88 98
88 99
88 103
88 111
88 119
89 90
89 92
89 93
89 101
89 103
89 107
89 108
89 111
89 112
89 114
89 119
90 91
90 92
90 93
90 95
90 98
90 99
90 113
90 121
91 92
91 95
91 98
91 99
91 107
91 112
92 93
92 95
92 99
92 101
92 103
92 107
92 108
92 111
92 112
92 114
92 119
94 97
94 108
94 109
94 116
94 117
95 98
95 99
95 104
95 105
95 106
95 107
95 112
95 115
96 100
96 101
96 102
96 104
96 105
96 106
96 110
96 115
96 118
97 108
97 109
97 116
97 117
98 99
98 103
98 111
98 119
99 107
99 112
100 101
100 102
100 104
100 105
100 106
100 110
100 115
100 118
101 102
101 119
103 107
103 108
103 111
103 112
103 114
103 119
104 105
104 106
104 107
104 109
104 110
104 113
104 115
104 118
105 106
105 107
105 109
105 110
105 113
105 115
105 118
106 107
106 109
106 110
106 113
106 115
106 118
107 108
107 111
107 112
107 114
107 115
107 119
108 109
108 111
108 112
108 114
108 116
108 117
108 119
109 110
109 113
109 116
109 117
109 120
110 113
110 115
110 118
111 112
111 114
111 119
112 114
112 119
113 121
114 119
115 118
116 117
116 120
117 120
0 1
2
3
4
5
6
7
8
9 10
11
12 13
14
15
16
17 18
19
20 21
22 23
24
25 26
27
28 29
30
31
32
33
34
35
36
37 38
39
40 41
42
43
44 45
46 47
48
49
50 51
52
53
54
55
56 57
58
59
60
61
62
63 64
65 66
67
68
69
70
71 72
73
74
75
76
77
78 79
80
81
82 83
84
85
86 87
88
89 90
91 92
93
94 95
96 97
98
99 100
101
102
103 104
105
106 107
108 109
110
111
112
113 114
115 116
117
118
119
120
121
